benchmarks_CP/INST_49x49/40/inst49x49_40_56.dzn
S=7;
start=[|
-1,	41,	-1,	-1,	9,	6,	-1,	-1,	-1,	-1,	23,	-1,	28,	-1,	-1,	29,	-1,	10,	7,	-1,	-1,	-1,	33,	12,	20,	-1,	-1,	-1,	36,	-1,	19,	-1,	-1,	18,	-1,	32,	-1,	-1,	-1,	-1,	-1,	-1,	27,	-1,	31,	5,	26,	-1,	35|
-1,	33,	24,	-1,	-1,	-1,	-1,	42,	-1,	30,	-1,	-1,	44,	31,	-1,	-1,	26,	-1,	34,	23,	9,	29,	7,	-1,	39,	-1,	14,	-1,	-1,	47,	3,	-1,	-1,	21,	40,	-1,	20,	41,	-1,	-1,	46,	17,	-1,	12,	-1,	-1,	22,	-1,	-1|
-1,	-1,	-1,	-1,	-1,	43,	-1,	37,	5,	46,	8,	22,	-1,	-1,	-1,	-1,	-1,	-1,	24,	-1,	-1,	40,	41,	-1,	47,	18,	-1,	3,	-1,	17,	-1,	35,	11,	-1,	16,	23,	-1,	10,	-1,	-1,	-1,	-1,	-1,	-1,	-1,	-1,	38,	-1,	-1|
-1,	36,	12,	37,	-1,	-1,	-1,	43,	41,	15,	13,	-1,	-1,	-1,	-1,	-1,	44,	32,	47,	40,	-1,	4,	8,	-1,	-1,	-1,	34,	46,	23,	-1,	-1,	-1,	31,	-1,	-1,	-1,	30,	35,	-1,	-1,	-1,	11,	-1,	-1,	-1,	45,	-1,	21,	42|
-1,	-1,	42,	-1,	13,	3,	-1,	-1,	-1,	-1,	-1,	-1,	-1,	-1,	-1,	-1,	41,	-1,	-1,	-1,	11,	-1,	-1,	-1,	2,	37,	-1,	-1,	-1,	-1,	44,	-1,	-1,	45,	49,	-1,	15,	-1,	22,	-1,	-1,	-1,	-1,	23,	24,	8,	-1,	-1,	-1|
-1,	-1,	-1,	-1,	-1,	-1,	47,	-1,	-1,	-1,	-1,	-1,	-1,	38,	-1,	21,	3,	-1,	45,	-1,	33,	-1,	-1,	-1,	5,	-1,	-1,	-1,	-1,	-1,	-1,	-1,	26,	8,	25,	24,	-1,	28,	36,	-1,	-1,	-1,	-1,	-1,	9,	-1,	-1,	-1,	43|
-1,	8,	-1,	27,	44,	-1,	20,	-1,	45,	26,	-1,	25,	-1,	24,	42,	28,	-1,	49,	35,	-1,	-1,	22,	36,	-1,	48,	9,	-1,	-1,	7,	41,	6,	46,	32,	-1,	37,	21,	-1,	-1,	-1,	31,	-1,	29,	-1,	33,	-1,	-1,	-1,	-1,	-1|
21,	-1,	13,	16,	37,	30,	48,	-1,	-1,	25,	-1,	43,	-1,	-1,	34,	-1,	7,	24,	-1,	17,	3,	-1,	40,	-1,	-1,	-1,	38,	1,	-1,	-1,	31,	-1,	-1,	-1,	-1,	-1,	-1,	-1,	-1,	19,	-1,	-1,	33,	35,	-1,	-1,	8,	-1,	15|
18,	5,	-1,	-1,	33,	-1,	-1,	-1,	12,	-1,	-1,	-1,	49,	42,	-1,	48,	-1,	43,	6,	-1,	-1,	14,	-1,	30,	17,	-1,	20,	31,	39,	-1,	-1,	-1,	-1,	-1,	-1,	-1,	-1,	-1,	-1,	34,	2,	-1,	4,	32,	-1,	-1,	-1,	-1,	-1|
8,	-1,	-1,	-1,	20,	7,	35,	-1,	39,	-1,	-1,	30,	-1,	-1,	-1,	15,	-1,	-1,	49,	16,	2,	-1,	-1,	-1,	-1,	23,	21,	-1,	-1,	43,	-1,	-1,	37,	-1,	-1,	-1,	-1,	-1,	-1,	-1,	45,	-1,	1,	-1,	-1,	-1,	34,	12,	5|
-1,	-1,	-1,	-1,	14,	-1,	23,	-1,	32,	-1,	-1,	-1,	-1,	-1,	-1,	44,	-1,	21,	-1,	25,	1,	2,	-1,	-1,	22,	-1,	-1,	-1,	-1,	-1,	-1,	-1,	-1,	28,	42,	-1,	-1,	-1,	-1,	-1,	-1,	-1,	-1,	37,	-1,	-1,	-1,	39,	-1|
10,	-1,	2,	-1,	-1,	-1,	-1,	-1,	-1,	-1,	48,	-1,	19,	-1,	-1,	-1,	42,	37,	-1,	28,	-1,	35,	43,	-1,	41,	-1,	-1,	47,	-1,	-1,	-1,	25,	15,	17,	3,	-1,	-1,	46,	-1,	-1,	-1,	-1,	-1,	7,	-1,	38,	49,	-1,	-1|
-1,	-1,	40,	-1,	-1,	12,	-1,	-1,	-1,	-1,	-1,	26,	-1,	-1,	45,	5,	-1,	35,	-1,	4,	47,	-1,	-1,	-1,	37,	-1,	-1,	39,	6,	-1,	-1,	27,	-1,	-1,	-1,	-1,	-1,	-1,	-1,	16,	-1,	-1,	22,	-1,	-1,	-1,	-1,	-1,	19|
-1,	-1,	41,	-1,	4,	-1,	17,	31,	35,	-1,	-1,	-1,	2,	-1,	23,	-1,	9,	39,	-1,	38,	-1,	12,	18,	49,	-1,	16,	-1,	-1,	34,	-1,	46,	-1,	5,	-1,	-1,	-1,	32,	14,	-1,	-1,	29,	1,	28,	-1,	40,	44,	-1,	45,	-1|
41,	14,	-1,	-1,	-1,	42,	40,	-1,	24,	39,	-1,	-1,	-1,	-1,	-1,	32,	-1,	-1,	-1,	-1,	43,	27,	-1,	22,	-1,	25,	5,	-1,	20,	10,	8,	-1,	19,	49,	-1,	-1,	-1,	18,	12,	-1,	34,	6,	-1,	2,	-1,	-1,	-1,	3,	11|
22,	-1,	-1,	-1,	-1,	-1,	-1,	-1,	-1,	4,	-1,	-1,	-1,	-1,	-1,	-1,	16,	-1,	-1,	-1,	-1,	-1,	-1,	-1,	-1,	-1,	-1,	2,	-1,	-1,	38,	-1,	-1,	-1,	-1,	-1,	-1,	-1,	9,	-1,	49,	10,	-1,	1,	-1,	43,	47,	-1,	-1|
13,	-1,	-1,	-1,	-1,	-1,	32,	-1,	25,	2,	-1,	7,	-1,	18,	-1,	-1,	-1,	-1,	40,	-1,	-1,	9,	-1,	-1,	36,	-1,	-1,	-1,	24,	-1,	-1,	33,	27,	3,	-1,	-1,	43,	-1,	35,	21,	4,	19,	-1,	-1,	12,	10,	16,	30,	-1|
-1,	-1,	16,	-1,	-1,	26,	-1,	-1,	-1,	6,	-1,	-1,	-1,	-1,	-1,	18,	-1,	15,	-1,	-1,	48,	-1,	-1,	-1,	35,	47,	-1,	-1,	40,	-1,	43,	-1,	-1,	11,	17,	-1,	13,	-1,	-1,	42,	41,	39,	-1,	22,	-1,	-1,	28,	27,	-1|
-1,	-1,	7,	-1,	-1,	48,	49,	11,	-1,	-1,	-1,	8,	-1,	32,	-1,	-1,	17,	13,	42,	-1,	19,	-1,	-1,	-1,	-1,	-1,	-1,	40,	-1,	16,	-1,	-1,	34,	-1,	31,	-1,	-1,	-1,	38,	-1,	-1,	14,	24,	25,	-1,	-1,	37,	20,	-1|
-1,	35,	-1,	-1,	-1,	-1,	9,	-1,	33,	-1,	16,	-1,	43,	19,	-1,	-1,	-1,	6,	21,	39,	-1,	13,	32,	-1,	-1,	-1,	49,	-1,	-1,	22,	2,	30,	36,	37,	-1,	28,	-1,	-1,	20,	23,	-1,	-1,	-1,	-1,	-1,	-1,	-1,	-1,	-1|
-1,	37,	-1,	36,	-1,	-1,	44,	-1,	22,	49,	-1,	48,	-1,	-1,	12,	-1,	46,	-1,	-1,	-1,	-1,	-1,	45,	-1,	-1,	-1,	-1,	4,	-1,	5,	-1,	-1,	-1,	-1,	35,	-1,	-1,	-1,	24,	-1,	-1,	-1,	21,	-1,	-1,	-1,	-1,	-1,	38|
-1,	-1,	29,	48,	-1,	-1,	3,	25,	-1,	-1,	-1,	-1,	45,	37,	-1,	12,	-1,	44,	-1,	-1,	16,	17,	10,	-1,	19,	-1,	-1,	43,	-1,	-1,	40,	-1,	8,	-1,	-1,	2,	-1,	-1,	-1,	28,	32,	-1,	-1,	-1,	-1,	33,	1,	-1,	-1|
30,	-1,	-1,	6,	46,	-1,	13,	-1,	23,	-1,	44,	-1,	-1,	-1,	-1,	-1,	-1,	-1,	-1,	-1,	-1,	-1,	-1,	2,	-1,	-1,	48,	-1,	28,	32,	34,	-1,	-1,	36,	-1,	-1,	-1,	-1,	41,	-1,	11,	38,	17,	-1,	-1,	35,	-1,	-1,	18|
-1,	-1,	-1,	-1,	-1,	45,	22,	2,	-1,	-1,	1,	-1,	-1,	-1,	-1,	-1,	4,	-1,	-1,	-1,	36,	44,	27,	-1,	32,	3,	-1,	28,	-1,	-1,	-1,	38,	-1,	-1,	-1,	35,	39,	-1,	-1,	33,	16,	-1,	5,	40,	-1,	13,	-1,	-1,	-1|
-1,	-1,	36,	28,	-1,	-1,	-1,	-1,	-1,	-1,	-1,	14,	13,	-1,	48,	-1,	22,	-1,	20,	42,	-1,	-1,	-1,	-1,	-1,	38,	-1,	41,	47,	-1,	-1,	-1,	-1,	-1,	-1,	-1,	12,	-1,	-1,	4,	1,	37,	-1,	-1,	11,	-1,	-1,	-1,	-1|
42,	-1,	-1,	-1,	47,	37,	-1,	17,	-1,	43,	24,	46,	-1,	-1,	-1,	-1,	-1,	2,	-1,	6,	-1,	-1,	12,	-1,	13,	-1,	4,	49,	45,	-1,	-1,	14,	21,	-1,	27,	10,	3,	5,	44,	-1,	-1,	-1,	-1,	-1,	48,	34,	-1,	31,	-1|
17,	-1,	23,	-1,	-1,	1,	-1,	-1,	-1,	-1,	-1,	5,	48,	-1,	-1,	-1,	-1,	46,	-1,	-1,	-1,	37,	-1,	14,	-1,	-1,	-1,	-1,	-1,	-1,	24,	-1,	-1,	-1,	20,	-1,	-1,	15,	13,	-1,	43,	-1,	-1,	26,	-1,	16,	-1,	-1,	-1|
-1,	4,	32,	-1,	38,	-1,	-1,	-1,	34,	-1,	-1,	-1,	-1,	7,	-1,	27,	-1,	-1,	13,	-1,	35,	47,	42,	26,	1,	-1,	16,	-1,	-1,	-1,	-1,	-1,	43,	-1,	-1,	19,	24,	48,	29,	49,	23,	31,	-1,	21,	-1,	2,	-1,	37,	10|
27,	-1,	45,	-1,	5,	16,	-1,	35,	42,	-1,	-1,	19,	-1,	13,	-1,	11,	12,	25,	-1,	18,	-1,	-1,	49,	10,	-1,	-1,	-1,	22,	30,	14,	-1,	15,	-1,	40,	4,	8,	-1,	-1,	32,	-1,	-1,	34,	44,	-1,	-1,	-1,	2,	-1,	-1|
-1,	-1,	-1,	38,	41,	-1,	11,	-1,	8,	33,	-1,	10,	-1,	-1,	-1,	40,	-1,	29,	14,	45,	15,	30,	-1,	42,	44,	-1,	-1,	-1,	-1,	-1,	-1,	-1,	-1,	-1,	-1,	47,	28,	27,	-1,	17,	21,	13,	-1,	-1,	-1,	-1,	32,	7,	9|
33,	32,	-1,	40,	42,	-1,	-1,	24,	3,	-1,	-1,	39,	30,	-1,	5,	41,	21,	27,	-1,	-1,	44,	-1,	-1,	-1,	12,	-1,	35,	23,	-1,	-1,	28,	7,	-1,	-1,	-1,	26,	-1,	-1,	-1,	-1,	-1,	-1,	-1,	-1,	8,	-1,	-1,	-1,	-1|
-1,	-1,	-1,	-1,	-1,	-1,	-1,	-1,	49,	-1,	32,	28,	37,	-1,	-1,	-1,	-1,	-1,	-1,	8,	-1,	6,	13,	-1,	-1,	-1,	-1,	33,	-1,	-1,	-1,	-1,	17,	-1,	-1,	-1,	14,	-1,	2,	-1,	5,	48,	-1,	-1,	-1,	27,	18,	-1,	-1|
-1,	-1,	14,	-1,	7,	-1,	8,	-1,	-1,	12,	-1,	-1,	21,	-1,	-1,	17,	-1,	48,	23,	-1,	30,	-1,	-1,	-1,	34,	1,	-1,	-1,	10,	-1,	45,	37,	-1,	-1,	36,	-1,	-1,	-1,	43,	-1,	40,	-1,	-1,	-1,	-1,	-1,	4,	-1,	29|
-1,	-1,	21,	-1,	-1,	-1,	-1,	36,	-1,	-1,	27,	-1,	46,	14,	-1,	6,	-1,	-1,	-1,	10,	24,	45,	28,	-1,	7,	-1,	37,	8,	33,	-1,	-1,	42,	-1,	20,	32,	-1,	-1,	16,	-1,	-1,	-1,	23,	40,	-1,	41,	49,	15,	35,	-1|
36,	-1,	39,	2,	-1,	-1,	-1,	47,	-1,	-1,	-1,	-1,	-1,	22,	28,	4,	-1,	-1,	16,	-1,	-1,	25,	-1,	32,	-1,	-1,	3,	17,	44,	24,	21,	-1,	46,	27,	-1,	-1,	-1,	12,	-1,	-1,	-1,	-1,	-1,	-1,	-1,	-1,	-1,	6,	45|
45,	-1,	8,	-1,	49,	-1,	26,	14,	-1,	-1,	-1,	16,	39,	-1,	-1,	22,	-1,	40,	-1,	-1,	-1,	-1,	37,	11,	-1,	-1,	-1,	-1,	21,	-1,	-1,	28,	44,	-1,	43,	-1,	42,	-1,	17,	29,	-1,	3,	-1,	-1,	-1,	-1,	-1,	-1,	-1|
-1,	-1,	20,	-1,	-1,	-1,	-1,	-1,	10,	-1,	-1,	-1,	-1,	4,	-1,	13,	-1,	-1,	44,	-1,	-1,	34,	26,	-1,	8,	-1,	-1,	-1,	31,	-1,	27,	17,	-1,	-1,	-1,	-1,	-1,	-1,	37,	48,	15,	-1,	-1,	-1,	-1,	-1,	-1,	33,	3|
7,	18,	10,	14,	-1,	-1,	42,	-1,	-1,	-1,	-1,	-1,	-1,	-1,	-1,	-1,	-1,	-1,	-1,	27,	26,	19,	-1,	31,	-1,	5,	-1,	-1,	-1,	37,	-1,	-1,	45,	-1,	33,	49,	2,	-1,	4,	-1,	-1,	-1,	-1,	-1,	-1,	47,	21,	-1,	25|
-1,	-1,	35,	39,	11,	-1,	33,	-1,	1,	-1,	-1,	-1,	40,	20,	-1,	-1,	-1,	-1,	-1,	-1,	-1,	-1,	-1,	-1,	25,	-1,	2,	42,	13,	-1,	10,	8,	-1,	-1,	-1,	-1,	-1,	34,	-1,	-1,	-1,	32,	-1,	-1,	-1,	29,	-1,	22,	-1|
37,	-1,	-1,	-1,	-1,	-1,	2,	38,	7,	-1,	46,	29,	-1,	3,	14,	-1,	-1,	17,	4,	32,	45,	-1,	47,	-1,	-1,	30,	-1,	-1,	-1,	-1,	-1,	18,	-1,	5,	-1,	-1,	21,	-1,	-1,	43,	-1,	8,	42,	-1,	26,	-1,	24,	-1,	20|
-1,	30,	-1,	-1,	3,	21,	-1,	45,	13,	-1,	-1,	-1,	-1,	-1,	36,	-1,	24,	7,	-1,	34,	18,	-1,	20,	29,	-1,	-1,	-1,	16,	2,	-1,	-1,	48,	49,	26,	-1,	41,	33,	44,	-1,	40,	-1,	28,	-1,	-1,	35,	-1,	-1,	-1,	-1|
-1,	-1,	-1,	-1,	27,	-1,	4,	-1,	43,	21,	-1,	-1,	5,	-1,	15,	-1,	-1,	-1,	39,	-1,	-1,	18,	-1,	46,	-1,	-1,	-1,	44,	-1,	-1,	42,	-1,	-1,	-1,	14,	6,	10,	19,	-1,	-1,	-1,	26,	48,	-1,	-1,	-1,	41,	-1,	-1|
-1,	-1,	-1,	-1,	48,	-1,	-1,	-1,	2,	-1,	10,	-1,	-1,	43,	-1,	-1,	6,	-1,	22,	-1,	-1,	11,	4,	15,	-1,	-1,	17,	-1,	-1,	-1,	-1,	5,	14,	-1,	44,	12,	-1,	-1,	-1,	41,	3,	-1,	-1,	24,	29,	-1,	-1,	8,	-1|
-1,	-1,	-1,	1,	10,	-1,	-1,	23,	-1,	16,	19,	24,	14,	-1,	-1,	-1,	-1,	-1,	48,	21,	-1,	5,	-1,	-1,	31,	12,	-1,	-1,	8,	-1,	25,	-1,	18,	38,	-1,	-1,	-1,	32,	27,	15,	-1,	-1,	2,	-1,	39,	-1,	9,	-1,	-1|
-1,	42,	49,	-1,	-1,	-1,	-1,	39,	-1,	-1,	-1,	-1,	15,	-1,	-1,	-1,	-1,	-1,	-1,	-1,	-1,	38,	-1,	-1,	18,	-1,	-1,	-1,	-1,	40,	48,	19,	35,	-1,	-1,	-1,	36,	-1,	-1,	-1,	-1,	-1,	-1,	13,	45,	21,	-1,	28,	14|
-1,	39,	-1,	-1,	-1,	-1,	-1,	33,	-1,	37,	20,	-1,	-1,	9,	24,	-1,	28,	-1,	15,	7,	-1,	-1,	35,	-1,	-1,	-1,	-1,	34,	26,	-1,	29,	-1,	-1,	-1,	-1,	-1,	17,	31,	-1,	22,	-1,	-1,	-1,	-1,	38,	-1,	-1,	-1,	32|
28,	-1,	11,	29,	15,	40,	-1,	4,	26,	3,	-1,	-1,	-1,	-1,	-1,	36,	-1,	-1,	-1,	37,	23,	-1,	-1,	19,	-1,	-1,	-1,	9,	-1,	-1,	-1,	2,	39,	-1,	12,	-1,	1,	-1,	-1,	-1,	-1,	-1,	-1,	-1,	46,	22,	-1,	-1,	41|
-1,	-1,	-1,	-1,	35,	-1,	37,	-1,	-1,	1,	-1,	-1,	-1,	48,	-1,	33,	-1,	-1,	10,	12,	-1,	20,	39,	-1,	-1,	-1,	-1,	-1,	11,	42,	7,	-1,	-1,	-1,	15,	16,	6,	29,	-1,	-1,	8,	46,	-1,	-1,	-1,	-1,	-1,	-1,	-1|
-1,	-1,	30,	8,	-1,	31,	43,	44,	46,	-1,	49,	38,	-1,	-1,	-1,	25,	13,	42,	-1,	11,	-1,	-1,	21,	41,	-1,	-1,	45,	-1,	27,	-1,	-1,	-1,	10,	-1,	28,	-1,	-1,	-1,	18,	14,	-1,	35,	7,	4,	47,	-1,	-1,	-1,	-1|];
