benchmarks_LEQ/INST_49x49/40/inst49x49_40_56.txt
7
1
-1	-1	-1	-1	9	-1	-1	1	4	11	23	-1	28	-1	8	29	-1	10	-1	43	-1	42	-1	-1	20	21	24	30	36	-1	-1	-1	-1	-1	22	32	25	-1	-1	47	37	-1	27	-1	-1	-1	-1	2	-1
-1	-1	24	-1	1	-1	5	-1	-1	30	2	-1	44	-1	-1	-1	-1	-1	-1	23	-1	29	7	-1	39	-1	14	-1	43	47	3	-1	28	-1	-1	38	20	41	6	-1	-1	-1	-1	12	-1	-1	-1	-1	-1
4	-1	31	19	34	43	21	37	5	-1	-1	-1	-1	-1	13	-1	2	20	-1	-1	6	40	-1	-1	47	-1	-1	3	-1	-1	33	-1	-1	15	-1	23	-1	10	45	-1	26	-1	36	-1	-1	28	38	32	7
29	36	12	37	26	-1	28	43	-1	15	-1	-1	-1	-1	-1	-1	-1	-1	-1	-1	-1	-1	8	-1	-1	-1	34	46	-1	-1	5	-1	31	-1	2	48	30	35	39	-1	-1	-1	16	20	-1	-1	-1	-1	-1
-1	-1	-1	-1	-1	-1	-1	32	14	47	-1	-1	27	-1	-1	39	-1	12	-1	-1	11	28	38	-1	-1	37	-1	-1	9	-1	44	29	-1	-1	49	-1	-1	43	22	-1	-1	-1	6	-1	-1	-1	-1	18	-1
-1	23	22	7	-1	-1	-1	-1	-1	18	-1	-1	16	38	37	-1	3	-1	-1	-1	-1	-1	-1	-1	-1	-1	-1	-1	14	30	-1	34	26	8	-1	24	-1	-1	-1	-1	42	-1	-1	15	9	-1	-1	-1	-1
-1	-1	-1	27	-1	2	20	-1	-1	-1	-1	25	3	-1	-1	-1	-1	-1	-1	5	4	-1	-1	-1	-1	9	-1	-1	7	41	-1	-1	32	-1	-1	21	19	1	-1	-1	-1	-1	-1	-1	30	-1	-1	34	-1
21	22	13	-1	37	-1	48	6	36	25	-1	43	-1	-1	34	-1	7	-1	46	-1	-1	-1	40	-1	-1	-1	-1	1	-1	2	-1	32	41	-1	29	-1	23	4	49	-1	-1	27	-1	-1	42	-1	-1	-1	15
18	-1	44	47	-1	38	-1	21	12	-1	3	37	49	42	-1	-1	8	-1	-1	41	-1	-1	-1	-1	17	-1	20	31	39	-1	-1	-1	1	-1	-1	-1	-1	-1	28	-1	2	-1	-1	-1	-1	-1	27	-1	-1
-1	-1	-1	3	-1	7	-1	-1	-1	-1	11	30	4	46	26	15	-1	-1	-1	16	-1	-1	-1	9	24	-1	21	-1	-1	-1	14	40	-1	48	-1	31	-1	-1	-1	-1	-1	-1	-1	17	10	-1	-1	12	-1
26	-1	19	-1	14	9	-1	27	-1	41	-1	-1	38	47	40	-1	-1	-1	-1	25	-1	-1	5	-1	22	-1	46	6	-1	8	-1	-1	-1	-1	42	18	-1	3	10	36	17	43	-1	-1	-1	31	-1	-1	-1
10	45	2	11	-1	-1	-1	-1	-1	-1	-1	40	19	-1	18	20	42	-1	-1	-1	-1	-1	-1	34	-1	-1	-1	-1	22	4	26	-1	15	17	-1	5	-1	-1	-1	-1	-1	-1	-1	-1	6	38	-1	-1	30
-1	43	-1	49	36	12	31	8	-1	-1	14	26	-1	-1	-1	-1	29	-1	32	-1	-1	-1	-1	13	-1	-1	10	-1	6	-1	-1	27	-1	-1	-1	33	48	-1	7	-1	-1	-1	-1	11	-1	-1	-1	-1	-1
24	-1	-1	-1	-1	-1	-1	-1	35	-1	-1	-1	2	-1	23	-1	-1	39	11	-1	-1	12	18	-1	27	-1	-1	-1	-1	-1	46	-1	-1	-1	-1	-1	-1	-1	8	-1	-1	-1	-1	-1	40	44	-1	-1	-1
-1	-1	-1	-1	30	-1	-1	-1	-1	-1	-1	9	-1	-1	38	32	-1	4	-1	-1	-1	27	48	22	23	25	-1	-1	-1	10	8	-1	-1	-1	-1	29	-1	-1	12	44	34	6	-1	-1	-1	-1	-1	-1	-1
-1	-1	6	-1	24	27	-1	-1	37	-1	-1	21	20	-1	-1	-1	-1	33	-1	36	-1	-1	-1	39	-1	15	-1	2	-1	-1	-1	44	-1	-1	-1	3	-1	-1	-1	-1	-1	-1	-1	-1	-1	43	-1	-1	8
-1	-1	15	-1	-1	47	-1	-1	-1	-1	-1	-1	31	-1	-1	-1	-1	22	40	49	-1	-1	17	8	-1	-1	-1	-1	-1	-1	-1	-1	27	-1	6	-1	-1	37	35	-1	4	19	26	5	12	10	-1	30	-1
-1	29	16	-1	-1	-1	-1	-1	44	-1	38	-1	10	36	-1	18	-1	-1	2	-1	48	-1	-1	-1	35	-1	-1	21	-1	7	-1	-1	12	-1	-1	-1	-1	-1	25	42	-1	39	-1	-1	-1	14	28	-1	-1
3	-1	-1	-1	43	-1	-1	11	-1	45	29	8	-1	32	-1	9	-1	13	-1	-1	-1	10	46	-1	-1	41	-1	40	4	-1	-1	26	-1	23	31	-1	5	-1	-1	2	22	14	-1	-1	-1	-1	37	20	39
-1	-1	-1	-1	25	-1	-1	46	33	-1	16	-1	-1	19	-1	24	-1	6	-1	-1	27	-1	-1	-1	38	-1	-1	12	-1	22	2	-1	36	-1	-1	-1	-1	47	20	23	-1	-1	-1	41	44	-1	-1	-1	40
-1	37	-1	36	-1	10	-1	-1	-1	49	-1	48	-1	-1	12	-1	-1	23	28	-1	-1	-1	-1	6	-1	26	-1	-1	-1	5	-1	41	-1	14	-1	-1	-1	-1	-1	11	27	-1	21	9	18	15	13	-1	-1
-1	-1	-1	48	21	-1	-1	-1	-1	38	-1	20	-1	-1	-1	12	-1	-1	-1	24	-1	17	-1	-1	-1	35	15	43	-1	-1	-1	13	-1	-1	11	-1	-1	-1	14	28	-1	36	-1	-1	-1	-1	-1	-1	22
30	19	-1	-1	46	-1	-1	-1	-1	-1	-1	-1	-1	-1	-1	-1	-1	-1	8	-1	37	-1	-1	-1	40	-1	48	-1	28	32	-1	12	4	36	10	-1	7	-1	-1	45	11	38	-1	3	15	-1	-1	-1	-1
9	20	-1	-1	-1	-1	-1	2	6	-1	1	-1	-1	41	17	-1	-1	-1	-1	15	36	-1	27	21	-1	-1	-1	-1	48	-1	-1	38	7	46	-1	-1	-1	-1	26	-1	16	-1	-1	40	-1	13	-1	-1	-1
39	7	-1	-1	-1	24	10	40	-1	35	15	14	-1	-1	48	-1	-1	-1	20	42	21	-1	25	5	-1	-1	9	-1	47	-1	-1	3	-1	-1	-1	-1	-1	-1	34	-1	1	-1	49	45	11	32	-1	-1	-1
42	-1	-1	41	-1	-1	15	-1	-1	-1	24	46	-1	-1	-1	7	40	-1	-1	-1	-1	-1	-1	-1	13	-1	-1	-1	-1	-1	-1	-1	21	1	-1	10	3	-1	-1	-1	-1	-1	-1	29	48	34	36	-1	23
17	-1	-1	-1	-1	-1	-1	19	21	-1	-1	5	48	49	30	-1	-1	-1	38	-1	-1	-1	-1	-1	-1	-1	-1	-1	29	-1	24	22	9	-1	-1	-1	-1	15	-1	18	-1	47	41	26	7	-1	42	-1	28
-1	-1	-1	44	-1	33	-1	-1	-1	22	-1	-1	-1	7	41	-1	39	-1	-1	-1	35	47	-1	-1	-1	-1	-1	-1	-1	-1	-1	-1	-1	25	5	-1	-1	-1	29	49	23	-1	-1	-1	-1	-1	-1	-1	-1
-1	46	45	-1	-1	16	-1	35	-1	29	-1	-1	-1	-1	-1	-1	12	25	-1	-1	-1	-1	49	10	21	-1	-1	22	-1	14	-1	-1	-1	40	4	-1	-1	24	-1	-1	-1	-1	-1	28	23	17	-1	-1	-1
-1	3	48	38	41	-1	-1	20	-1	-1	-1	10	1	-1	2	40	-1	29	-1	-1	15	-1	16	-1	-1	43	19	-1	-1	34	49	31	22	-1	26	-1	-1	-1	46	-1	-1	-1	-1	-1	-1	24	-1	-1	9
-1	32	37	40	-1	-1	29	24	3	17	-1	-1	-1	2	5	-1	-1	-1	19	-1	44	36	-1	-1	12	-1	-1	23	-1	-1	-1	-1	-1	-1	1	26	4	49	15	-1	6	-1	34	-1	8	20	46	-1	31
47	-1	-1	-1	22	35	-1	7	49	40	32	-1	-1	11	-1	-1	-1	-1	-1	-1	42	-1	13	-1	-1	-1	-1	-1	-1	29	-1	-1	17	19	-1	44	-1	45	2	-1	-1	48	3	10	-1	-1	18	-1	-1
-1	-1	14	18	-1	-1	-1	-1	-1	12	31	44	21	-1	33	-1	-1	-1	-1	-1	-1	-1	2	-1	-1	-1	-1	-1	-1	6	-1	-1	3	-1	-1	42	-1	-1	-1	35	-1	-1	25	-1	22	19	-1	-1	29
-1	9	-1	-1	-1	-1	34	-1	48	-1	-1	-1	-1	14	-1	6	-1	-1	43	-1	-1	45	-1	-1	7	-1	37	-1	-1	-1	-1	42	2	20	32	-1	-1	-1	11	-1	-1	23	40	-1	-1	49	-1	-1	-1
-1	-1	-1	-1	-1	-1	1	-1	-1	-1	-1	-1	-1	22	28	4	20	-1	16	35	-1	-1	11	32	26	40	3	-1	44	-1	-1	43	46	27	-1	-1	29	12	-1	37	-1	33	-1	-1	14	-1	5	-1	45
45	-1	-1	-1	49	-1	-1	14	-1	-1	36	16	-1	23	-1	-1	38	-1	41	-1	-1	-1	-1	-1	4	-1	13	-1	21	-1	47	28	44	9	43	7	-1	-1	17	-1	-1	3	18	19	-1	30	-1	-1	-1
-1	-1	-1	-1	-1	19	-1	-1	10	42	-1	-1	-1	4	21	-1	-1	-1	-1	-1	-1	-1	-1	-1	8	-1	28	14	-1	-1	27	-1	-1	-1	7	-1	18	-1	-1	-1	15	-1	-1	38	43	-1	45	33	-1
-1	18	10	14	6	-1	42	-1	-1	44	-1	17	11	28	-1	-1	48	-1	-1	-1	-1	-1	-1	31	9	-1	-1	38	-1	-1	-1	20	-1	29	33	-1	-1	13	4	-1	-1	-1	-1	34	-1	-1	21	-1	-1
-1	48	-1	-1	-1	-1	33	12	1	-1	-1	-1	-1	-1	6	-1	-1	-1	9	47	-1	21	-1	36	25	-1	2	-1	13	23	10	-1	-1	4	24	14	-1	-1	-1	27	-1	-1	-1	-1	-1	-1	-1	-1	44
-1	-1	9	-1	-1	-1	2	-1	-1	-1	-1	29	25	-1	14	23	-1	17	-1	32	-1	-1	47	-1	6	-1	-1	27	-1	-1	35	-1	40	-1	-1	22	-1	-1	-1	43	31	8	-1	-1	-1	-1	-1	10	20
-1	30	-1	22	3	-1	-1	-1	-1	9	-1	-1	8	27	-1	42	-1	-1	-1	34	18	15	20	-1	-1	32	-1	16	2	-1	-1	-1	-1	26	-1	-1	-1	44	5	-1	-1	-1	-1	31	35	1	17	-1	4
-1	40	17	24	-1	-1	-1	-1	43	-1	-1	-1	5	-1	15	-1	11	-1	39	-1	-1	-1	-1	-1	45	-1	-1	44	-1	-1	-1	36	-1	-1	-1	-1	-1	19	23	-1	47	26	48	8	-1	37	41	-1	-1
38	-1	-1	-1	48	46	-1	18	2	-1	-1	31	7	43	-1	-1	-1	-1	22	-1	-1	-1	4	15	42	-1	-1	-1	-1	9	-1	5	-1	-1	44	12	-1	23	40	41	3	-1	35	24	29	26	30	8	-1
6	13	33	1	-1	20	36	-1	40	-1	19	24	-1	35	-1	-1	-1	-1	-1	-1	-1	-1	-1	-1	-1	12	-1	7	8	-1	-1	45	18	-1	-1	-1	47	-1	27	-1	-1	49	-1	-1	-1	-1	-1	-1	34
-1	-1	-1	-1	-1	-1	7	39	-1	-1	12	-1	15	30	-1	-1	5	-1	-1	1	34	-1	-1	-1	-1	-1	-1	10	37	40	-1	19	-1	43	-1	-1	-1	2	-1	25	-1	20	-1	13	45	21	23	28	14
-1	-1	3	-1	-1	-1	-1	33	-1	-1	-1	-1	-1	-1	-1	-1	28	-1	-1	7	8	-1	35	25	-1	-1	1	34	-1	36	29	-1	47	-1	-1	-1	17	31	-1	-1	44	45	19	-1	38	40	-1	-1	32
-1	-1	11	-1	15	-1	-1	-1	26	-1	21	-1	6	45	35	-1	-1	-1	30	-1	-1	43	-1	-1	16	8	33	9	-1	-1	-1	2	-1	-1	12	-1	-1	-1	-1	-1	10	5	-1	-1	-1	-1	25	48	41
32	21	-1	9	35	-1	-1	-1	-1	1	-1	-1	41	-1	-1	33	-1	-1	10	-1	-1	-1	-1	-1	-1	2	40	26	-1	42	-1	24	13	-1	-1	-1	6	29	-1	-1	8	46	43	-1	5	3	-1	49	-1
-1	34	-1	8	2	-1	-1	44	-1	-1	49	38	-1	-1	-1	-1	13	-1	17	-1	-1	48	-1	-1	3	-1	45	29	-1	-1	-1	16	-1	6	-1	39	37	26	-1	14	-1	-1	-1	-1	-1	-1	-1	-1	-1
49 
23 17 43 31
22 36 42 20
14 47 40 14
24 17 6 31
36 48 23 18
43 17 4 14
12 44 14 34
8 47 27 37
37 43 8 46
31 40 44 5
11 37 26 2
1 24 40 30
12 41 35 43
46 18 41 48
48 35 19 31
8 4 22 21
21 36 18 35
25 31 17 14
2 9 13 49
27 35 36 41
4 48 32 45
42 8 4 21
17 5 46 6
34 21 7 14
43 4 22 8
25 18 44 16
47 17 18 48
40 5 25 4
22 3 3 13
30 22 32 4
24 10 45 15
37 5 21 31
18 22 1 23
32 16 28 9
36 28 42 11
34 8 19 38
24 31 47 20
19 39 21 49
40 27 13 28
7 11 1 38
6 46 15 1
42 31 16 27
28 33 29 11
25 30 4 17
20 35 9 30
6 20 3 10
41 3 18 26
41 32 45 31
22 15 24 30
